\* Simple_LP_Problem *\
Minimize
objective_function: 2.27085614987e-06 x0 + 2.27085614987e-06 x1
 + 2.27085614987e-06 x2 + 2.27085614987e-06 x3 + 5.09327431232e-06 x4
 + 5.09327431232e-06 x5 + 5.09327431232e-06 x6 + 5.09327431232e-06 x7
Subject To
_C1: 2500 x0 + 1500 x1 + 1000 x2 + 1000 x3 + 1500 x4 + 1000 x5 + 500 x6
 + 500 x7 + 1150 x8 = 8228
Bounds
 x0 <= 1
 x1 <= 1
 x2 <= 1
 x3 <= 1
 0.75 <= x4 <= 1
 x5 <= 1
 x6 <= 1
 x7 <= 1
 x8 <= 1
End
